n= 1
m= 30
1000
659	24	4
434	49	7
409	56	8
294	42	7
663	8	1
527	10	2
759	54	9
601	45	9
324	56	7
540	40	5
275	63	9
525	8	1
456	42	7
799	72	9
748	18	3
650	42	6
500	54	9
235	30	5
704	48	8
457	16	2
760	56	7
779	24	3
221	35	5
772	12	2
725	42	6
594	7	1
255	12	2
592	36	6
548	7	1
465	42	6
